6324
6366
6385
6280
6301
6231
6318
6335
6300
6136
6387
6351
6328
6300
6333
6271
6317
6187
6403
6269
6260
6320
6264
6336
6376
6025
6319
6287
6244
6273
6313
6220
6325
6336
6284
6380
6315
6255
6325
6355
6375
6260
6314
6373
6316
6322
6371
6331
6353
6352
6375
6267
6177
6262
6252
6277
6307
6270
6287
6339
6251
6266
6363
6164
6223
6261
6331
6258
6205
6300
6326
6353
6373
6162
6344
6376
6309
6240
6317
6188
6264
6133
6312
6332
6248
6161
6258
6292
6270
6182
6256
6389
6318
6344
6303
6281
6157
6413
6356
6310
